;; ===================== PROJECTED CANON (QE) =====================
;; Each clause below is entailed by Proj = ∃W.F over the canonical vocabulary.
;; Units appear first for clarity; OR-clauses (SAT-filtered) follow.
;; ==================================================================

;; Unit Bool constraints (entailed)
(assert (not patient_is_pregnant_now))
(assert (not patient_is_pregnant_inthefuture))
(assert (not patient_has_finding_of_problem_inthehistory))
(assert (not patient_has_finding_of_jaw_pain_now))
(assert (not patient_has_finding_of_neck_pain_now))
(assert (not patient_has_finding_of_pain_in_upper_limb_now))
(assert (not patient_has_diagnosis_of_cerebrovascular_disease_inthehistory))
(assert (not patient_has_diagnosis_of_transient_cerebral_ischemia_inthehistory))
(assert (not patient_has_finding_of_peripheral_vascular_disease_inthehistory))
(assert (not patient_has_diagnosis_of_type_1_diabetes_mellitus_now))
(assert (not patient_has_diagnosis_of_type_2_diabetes_mellitus_now))
(assert (not patient_has_finding_of_chronic_infectious_disease_now))
(assert (not patient_has_finding_of_human_immunodeficiency_virus_infection_now))
(assert (not patient_has_finding_of_disease_of_liver_now))
(assert (not patient_has_diagnosis_of_cystic_fibrosis_now))
(assert (not patient_has_diagnosis_of_chronic_obstructive_lung_disease_now))
(assert (not patient_has_finding_of_interstitial_lung_disease_now))
(assert (not patient_has_diagnosis_of_pulmonary_emphysema_now))
